%%%%%%%%%%%%%%%%%%%%%%%%%%%%%%%%%%%%%%%%%%%%%%%%%%%%%%%%%%%%%%%%%%%%%%%%%
%FILE DATA:	Soccer Computational Problem for MiniZinc Models
%AUTHORS:	Robinson Duque, Alejandro Arbelaez, Juan Francisco Díaz
%CONTACT:  	robinson.duque@correounivalle.edu.co 
%LAST UPDATE:	May, 2018 
%ROUND ROBIN:2
%TEAMS:20
%PRESENT FIXTURE:33
%FIXTURES TO PLAY:5
%GAMES TO PLAY:50
%%%%%%%%%%%%%%%%%%%%%%%%%%%%%%%%%%%%%%%%%%%%%%%%%%%%%%%%%%%%%%%%%%%%%%%%%
%Number of teams:
n=20;

%For the purpose of our models, we offer two representations of the games to play, namely fixtures and games to play:

%Fixtures to play:
%fixtures=[|0,0,1,0,1,1,1,0,0,1,0,0,0,0,0,0,0,0,0,0
%|0,0,1,1,0,0,1,1,1,0,0,0,0,0,0,0,0,0,0,0
%|1,1,0,1,1,0,0,0,0,0,1,0,0,0,0,0,0,0,0,0
%|0,1,1,0,1,0,0,0,0,0,0,0,0,0,0,0,0,1,1,0
%|1,0,1,1,0,0,0,0,0,0,1,1,0,0,0,0,0,0,0,0
%|1,0,0,0,0,0,1,1,1,0,0,1,0,0,0,0,0,0,0,0
%|1,1,0,0,0,1,0,1,0,0,1,0,0,0,0,0,0,0,0,0
%|0,1,0,0,0,1,1,0,0,1,0,0,0,0,0,0,0,0,0,1
%|0,1,0,0,0,1,0,0,0,1,1,1,0,0,0,0,0,0,0,0
%|1,0,0,0,0,0,0,1,1,0,0,0,0,1,1,0,0,0,0,0
%|0,0,1,0,1,0,1,0,1,0,0,1,0,0,0,0,0,0,0,0
%|0,0,0,0,1,1,0,0,1,0,1,0,0,0,0,0,0,0,0,1
%|0,0,0,0,0,0,0,0,0,0,0,0,0,1,0,1,1,1,0,1
%|0,0,0,0,0,0,0,0,0,1,0,0,1,0,1,0,0,0,1,1
%|0,0,0,0,0,0,0,0,0,1,0,0,0,1,0,1,0,1,1,0
%|0,0,0,0,0,0,0,0,0,0,0,0,1,0,1,0,1,1,1,0
%|0,0,0,0,0,0,0,0,0,0,0,0,1,0,0,1,0,1,1,1
%|0,0,0,1,0,0,0,0,0,0,0,0,1,0,1,1,1,0,0,0
%|0,0,0,1,0,0,0,0,0,0,0,0,0,1,1,1,1,0,0,0
%|0,0,0,0,0,0,0,1,0,0,0,1,1,1,0,0,1,0,0,0|];

%Played Fixtures:
%PlayedFixtures=[|0,2,1,2,1,1,1,2,2,1,2,2,2,2,2,2,2,2,2,2
%|2,0,1,1,2,2,1,1,1,2,2,2,2,2,2,2,2,2,2,2
%|1,1,0,1,1,2,2,2,2,2,1,2,2,2,2,2,2,2,2,2
%|2,1,1,0,1,2,2,2,2,2,2,2,2,2,2,2,2,1,1,2
%|1,2,1,1,0,2,2,2,2,2,1,1,2,2,2,2,2,2,2,2
%|1,2,2,2,2,0,1,1,1,2,2,1,2,2,2,2,2,2,2,2
%|1,1,2,2,2,1,0,1,2,2,1,2,2,2,2,2,2,2,2,2
%|2,1,2,2,2,1,1,0,2,1,2,2,2,2,2,2,2,2,2,1
%|2,1,2,2,2,1,2,2,0,1,1,1,2,2,2,2,2,2,2,2
%|1,2,2,2,2,2,2,1,1,0,2,2,2,1,1,2,2,2,2,2
%|2,2,1,2,1,2,1,2,1,2,0,1,2,2,2,2,2,2,2,2
%|2,2,2,2,1,1,2,2,1,2,1,0,2,2,2,2,2,2,2,1
%|2,2,2,2,2,2,2,2,2,2,2,2,0,1,2,1,1,1,2,1
%|2,2,2,2,2,2,2,2,2,1,2,2,1,0,1,2,2,2,1,1
%|2,2,2,2,2,2,2,2,2,1,2,2,2,1,0,1,2,1,1,2
%|2,2,2,2,2,2,2,2,2,2,2,2,1,2,1,0,1,1,1,2
%|2,2,2,2,2,2,2,2,2,2,2,2,1,2,2,1,0,1,1,1
%|2,2,2,1,2,2,2,2,2,2,2,2,1,2,1,1,1,0,2,2
%|2,2,2,1,2,2,2,2,2,2,2,2,2,1,1,1,1,2,0,2
%|2,2,2,2,2,2,2,1,2,2,2,1,1,1,2,2,1,2,2,0|];

%Games to play:
games=[|3,1|3,2|4,2|4,3|5,1|5,3|5,4|6,1|7,1|7,2|7,6|8,2|8,6|8,7|9,2|9,6|10,1|10,8|10,9|11,3|11,5|11,7|11,9|12,5|12,6|12,9|12,11|14,10|14,13|15,10|15,14|16,13|16,15|17,13|17,16|18,4|18,13|18,15|18,16|18,17|19,4|19,14|19,15|19,16|19,17|20,8|20,12|20,13|20,14|20,17|];

%Played Games:
%PlayedGames=[|2,1|2,1|3,1|3,2|4,1|4,1|4,2|4,3|5,1|5,2|5,2|5,3|5,4|6,1|6,2|6,2|6,3|6,3|6,4|6,4|6,5|6,5|7,1|7,2|7,3|7,3|7,4|7,4|7,5|7,5|7,6|8,1|8,1|8,2|8,3|8,3|8,4|8,4|8,5|8,5|8,6|8,7|9,1|9,1|9,2|9,3|9,3|9,4|9,4|9,5|9,5|9,6|9,7|9,7|9,8|9,8|10,1|10,2|10,2|10,3|10,3|10,4|10,4|10,5|10,5|10,6|10,6|10,7|10,7|10,8|10,9|11,1|11,1|11,2|11,2|11,3|11,4|11,4|11,5|11,6|11,6|11,7|11,8|11,8|11,9|11,10|11,10|12,1|12,1|12,2|12,2|12,3|12,3|12,4|12,4|12,5|12,6|12,7|12,7|12,8|12,8|12,9|12,10|12,10|12,11|13,1|13,1|13,2|13,2|13,3|13,3|13,4|13,4|13,5|13,5|13,6|13,6|13,7|13,7|13,8|13,8|13,9|13,9|13,10|13,10|13,11|13,11|13,12|13,12|14,1|14,1|14,2|14,2|14,3|14,3|14,4|14,4|14,5|14,5|14,6|14,6|14,7|14,7|14,8|14,8|14,9|14,9|14,10|14,11|14,11|14,12|14,12|14,13|15,1|15,1|15,2|15,2|15,3|15,3|15,4|15,4|15,5|15,5|15,6|15,6|15,7|15,7|15,8|15,8|15,9|15,9|15,10|15,11|15,11|15,12|15,12|15,13|15,13|15,14|16,1|16,1|16,2|16,2|16,3|16,3|16,4|16,4|16,5|16,5|16,6|16,6|16,7|16,7|16,8|16,8|16,9|16,9|16,10|16,10|16,11|16,11|16,12|16,12|16,13|16,14|16,14|16,15|17,1|17,1|17,2|17,2|17,3|17,3|17,4|17,4|17,5|17,5|17,6|17,6|17,7|17,7|17,8|17,8|17,9|17,9|17,10|17,10|17,11|17,11|17,12|17,12|17,13|17,14|17,14|17,15|17,15|17,16|18,1|18,1|18,2|18,2|18,3|18,3|18,4|18,5|18,5|18,6|18,6|18,7|18,7|18,8|18,8|18,9|18,9|18,10|18,10|18,11|18,11|18,12|18,12|18,13|18,14|18,14|18,15|18,16|18,17|19,1|19,1|19,2|19,2|19,3|19,3|19,4|19,5|19,5|19,6|19,6|19,7|19,7|19,8|19,8|19,9|19,9|19,10|19,10|19,11|19,11|19,12|19,12|19,13|19,13|19,14|19,15|19,16|19,17|19,18|19,18|20,1|20,1|20,2|20,2|20,3|20,3|20,4|20,4|20,5|20,5|20,6|20,6|20,7|20,7|20,8|20,9|20,9|20,10|20,10|20,11|20,11|20,12|20,13|20,14|20,15|20,15|20,16|20,16|20,17|20,18|20,18|20,19|20,19|];

%Played Games - Win Results:
%% 0  0  0  1  1  1  0  2  0  0  1  2  0  0  1  1  2  2  1  0
%% 0  0  0  1  0  0  0  1  0  0  1  2  1  0  0  1  2  0  2  0
%% 0  1  0  0  1  0  1  2  0  2  1  0  1  2  0  2  0  0  0  2
%% 0  0  0  0  0  0  0  0  0  0  0  0  0  0  0  0  0  0  0  0
%% 0  0  0  0  0  0  0  2  2  0  1  0  0  0  0  1  2  0  2  1
%% 0  0  0  0  0  0  0  0  0  2  0  0  2  0  2  1  0  0  2  2
%% 1  1  1  0  0  0  0  0  2  0  0  2  2  1  1  1  2  0  2  0
%% 0  0  0  0  0  0  0  0  0  0  0  0  0  0  0  0  0  0  0  0
%% 0  1  1  1  0  1  0  0  0  0  1  0  1  0  0  1  0  0  0  2
%% 0  0  0  2  1  0  1  1  0  0  0  0  0  0  0  1  0  0  0  0
%% 0  0  0  0  0  0  0  0  0  0  0  0  2  0  0  1  2  0  0  1
%% 0  0  0  1  0  1  0  0  0  2  0  0  0  0  0  0  0  0  0  1
%% 0  0  0  0  0  0  0  0  0  0  0  0  0  0  0  0  0  0  0  0
%% 1  1  0  2  2  2  1  2  2  0  0  0  0  0  1  2  0  2  0  0
%% 0  0  0  0  0  0  0  0  0  0  0  0  0  0  0  0  0  0  0  0
%% 0  0  0  0  0  0  0  0  0  0  0  0  0  0  0  0  0  0  1  0
%% 0  0  0  2  0  0  0  0  0  0  0  0  1  0  0  1  0  0  1  1
%% 0  0  0  0  0  0  1  1  0  1  1  1  1  0  1  0  0  0  0  0
%% 0  0  0  0  0  0  0  0  0  0  0  0  0  0  0  0  0  0  0  0
%% 0  0  0  0  0  0  0  0  0  0  0  0  0  0  0  0  0  0  0  0
%Played Games - Tie Results:
%% 0  2  1  1  0  0  0  0  2  1  1  0  2  1  1  1  0  0  1  2
%% 2  0  0  0  2  2  0  0  0  2  1  0  1  1  2  1  0  2  0  2
%% 1  0  0  1  0  2  0  0  1  0  0  2  1  0  2  0  2  2  2  0
%% 1  0  1  0  1  2  2  2  1  0  2  1  2  0  2  2  0  1  1  2
%% 0  2  0  1  0  2  2  0  0  1  0  1  2  0  2  1  0  2  0  1
%% 0  2  2  2  2  0  1  1  0  0  2  0  0  0  0  1  2  2  0  0
%% 0  0  0  2  2  1  0  1  0  1  1  0  0  0  1  1  0  1  0  2
%% 0  0  0  2  0  1  1  0  2  0  2  2  2  0  2  2  2  1  2  1
%% 2  0  1  1  0  0  0  2  0  1  0  1  1  0  2  1  2  2  2  0
%% 1  2  0  0  1  0  1  0  1  0  2  0  2  1  1  1  2  1  2  2
%% 1  1  0  2  0  2  1  2  0  2  0  1  0  2  2  1  0  1  2  1
%% 0  0  2  1  1  0  0  2  1  0  1  0  2  2  2  2  2  1  2  0
%% 2  1  1  2  2  0  0  2  1  2  0  2  0  1  2  1  0  0  2  1
%% 1  1  0  0  0  0  0  0  0  1  2  2  1  0  0  0  2  0  1  1
%% 1  2  2  2  2  0  1  2  2  1  2  2  2  0  0  1  2  0  1  2
%% 1  1  0  2  1  1  1  2  1  1  1  2  1  0  1  0  0  1  0  2
%% 0  0  2  0  0  2  0  2  2  2  0  2  0  2  2  0  0  1  0  0
%% 0  2  2  1  2  2  1  1  2  1  1  1  0  0  0  1  1  0  2  2
%% 1  0  2  1  0  0  0  2  2  2  2  2  2  1  1  0  0  2  0  2
%% 2  2  0  2  1  0  2  1  0  2  1  0  1  1  2  2  0  2  2  0
%Played Games - Lose Results:
%% 0  0  0  0  0  0  1  0  0  0  0  0  0  1  0  0  0  0  0  0
%% 0  0  1  0  0  0  1  0  1  0  0  0  0  1  0  0  0  0  0  0
%% 0  0  0  0  0  0  1  0  1  0  0  0  0  0  0  0  0  0  0  0
%% 1  1  0  0  0  0  0  0  1  2  0  1  0  2  0  0  2  0  0  0
%% 1  0  1  0  0  0  0  0  0  1  0  0  0  2  0  0  0  0  0  0
%% 1  0  0  0  0  0  0  0  1  0  0  1  0  2  0  0  0  0  0  0
%% 0  0  1  0  0  0  0  0  0  1  0  0  0  1  0  0  0  1  0  0
%% 2  1  2  0  2  0  0  0  0  1  0  0  0  2  0  0  0  1  0  0
%% 0  0  0  0  2  0  2  0  0  0  0  0  0  2  0  0  0  0  0  0
%% 0  0  2  0  0  2  0  0  0  0  0  2  0  0  0  0  0  1  0  0
%% 1  1  1  0  1  0  0  0  1  0  0  0  0  0  0  0  0  1  0  0
%% 2  2  0  0  0  0  2  0  0  0  0  0  0  0  0  0  0  1  0  0
%% 0  1  1  0  0  2  2  0  1  0  2  0  0  0  0  0  1  1  0  0
%% 0  0  2  0  0  0  1  0  0  0  0  0  0  0  0  0  0  0  0  0
%% 1  0  0  0  0  2  1  0  0  0  0  0  0  1  0  0  0  1  0  0
%% 1  1  2  0  1  1  1  0  1  1  1  0  0  2  0  0  1  0  0  0
%% 2  2  0  0  2  0  2  0  0  0  2  0  0  0  0  0  0  0  0  0
%% 2  0  0  0  0  0  0  0  0  0  0  0  0  2  0  0  0  0  0  0
%% 1  2  0  0  2  2  2  0  0  0  0  0  0  0  0  1  1  0  0  0
%% 0  0  2  0  1  2  0  0  2  0  1  1  0  0  0  0  1  0  0  0

%%Initial points:
iPoints=[61, 51, 61, 23, 50, 50, 61, 22, 45, 38, 39, 36, 22, 66, 27, 22, 35, 43, 22, 23];

%%Initial positions:
%iPositions=[4, 5, 3, 16, 7, 6, 2, 20, 8, 11, 10, 12, 19, 1, 14, 18, 13, 9, 17, 15];

%%Position Constraints:
%numberPositionConstraints=1;

%%Total Fixtures:
%totalFixtures=38;

%%Fixtures to Play:
%fixturesToPlay=5;

%%Position Constraints Built With
%wantedPoints=[0, 3, 1, 0, 1, 0, 1, 1, 1, 1, 3, 0, 0, 0, 3, 1, 0, 1, 3, 0, 3, 3, 3, 3, 0, 3, 1, 1, 1, 1, 3, 0, 0, 1, 1, 0, 0, 0, 3, 3, 3, 0, 3, 0, 3, 1, 1, 3, 3, 3];

%POSITION CONSTRAINTS
%%[|teamID, operator, position|...]
%%operators index:
%%%1 for =  operator
%%%2 for >  operator
%%%3 for >= operator
%%%4 for <  operator
%%%5 for <= operator

positionConstraints=[|16,1,19|];

%SCORE VECTOR CONSTRAINTS
%%[|teamID, operator, wantedPoints|...]
%%operators index:
%%%1 for =  operator
%%%2 for >  operator
%%%3 for >= operator
%%%4 for <  operator
%%%5 for <= operator

%scoreVectorConstraints=[|16,1,26|];

%Instance Features:
%features=T,FP,TF,C,C/T,C/TF,FP/TF,FP/T,FP*C/T,FP*T/C,(C/T)*(FP/TF),Distance,Distance/C,Distance/T,Distance/(C*T)
%values=20,5,38,1,0.05,0.02631578947368421,0.131578947368421,0.25,0.25,100.0,0.006578947368421052,1,1.0,0.05,0.05



gamesOfEveryTeam=[5,5,5,5,5,5,5,5,5,5,5,5,5,5,5,5,5,5,5,5];
weights=[|99,1,0,0|31,40,0,29|63,37,0,0|50,38,0,12|3,2,0,95|76,14,0,10|13,24,0,63|56,0,0,44|23,24,0,53|34,36,0,30|100,0,0,0|38,56,0,6|8,50,0,42|49,19,0,32|74,5,0,21|23,12,0,65|65,18,0,17|93,1,0,6|9,40,0,51|47,9,0,44|24,4,0,72|47,48,0,5|27,66,0,7|31,58,0,11|36,46,0,18|41,15,0,44|41,3,0,56|57,7,0,36|37,27,0,36|59,3,0,38|23,61,0,16|75,15,0,10|32,55,0,13|62,5,0,33|99,0,0,1|53,47,0,0|93,1,0,6|92,8,0,0|58,1,0,41|86,8,0,6|48,50,0,2|26,60,0,14|29,51,0,20|34,22,0,44|73,20,0,7|29,59,0,12|41,9,0,50|22,5,0,73|92,4,0,4|86,2,0,12|];